
;this file is automatically generated: Fri Jan 03 16:26:56 GMT 2020

;declarations generated

(declare-fun oclExcludes ( Int Int) Bool)
(declare-fun class17_Class17IntAttr6 ( Int) Int)
(declare-fun class17_Class17IntAttr4 ( Int) Int)
(declare-fun Cardinality ( Int) Int)
(declare-fun obj_267abeaf_c042_40b2_879f_0da500ab226a ( Int) Int)
(declare-fun oclSelect ( Int Bool) Int)
(declare-fun type_02e21cab_2e55_4af0_87b5_e17869be0699_Class17 ( Int) Bool)
(declare-fun Enum0 ( Int) Int)
(declare-fun Enum1 ( Int) Int)
(declare-fun Enum2 ( Int) Int)
(declare-fun container_ ( Int) Int)
(declare-fun oclIncludes ( Int Int) Bool)
(declare-fun ObjAt ( Int Int) Int)

;formula(s) generated
(assert (forall ((p Int)) (=> ( type_02e21cab_2e55_4af0_87b5_e17869be0699_Class17 p )  (and (>= ( Enum1 ( obj_267abeaf_c042_40b2_879f_0da500ab226a p )  )  0) (<= ( Enum1 ( obj_267abeaf_c042_40b2_879f_0da500ab226a p )  )  5)))))
(assert (! (forall ((v Int)) (=> ( type_02e21cab_2e55_4af0_87b5_e17869be0699_Class17 v )  (or (>= ( class17_Class17IntAttr4 ( obj_267abeaf_c042_40b2_879f_0da500ab226a v )  )  5) (and (forall ((c7_2 Int)(c7_1 Int)) (=> (and ( type_02e21cab_2e55_4af0_87b5_e17869be0699_Class17 c7_1 )  ( type_02e21cab_2e55_4af0_87b5_e17869be0699_Class17 c7_2 ) ) (>= ( class17_Class17IntAttr4 ( obj_267abeaf_c042_40b2_879f_0da500ab226a c7_1 )  )  ( class17_Class17IntAttr6 ( obj_267abeaf_c042_40b2_879f_0da500ab226a c7_2 )  ) ))) (forall ((v Int)) (=> ( type_02e21cab_2e55_4af0_87b5_e17869be0699_Class17 v )  (= ( Enum1 ( obj_267abeaf_c042_40b2_879f_0da500ab226a v )  )  3))))))):named l0))
(assert (exists ((o Int)) ( type_02e21cab_2e55_4af0_87b5_e17869be0699_Class17 ( obj_267abeaf_c042_40b2_879f_0da500ab226a o )  ) ))

 ;end of formula 